c AI planning file sortnetsort5.AE.stepl.005.qcnf (Jussi.Rintanen@NICTA.com.au)
p cnf 986 1665 
a 37 38 39 40 41 42 43 44 45 46 47 48 49 50 51 52 53 54 55 56 57 58 59 60 61 62 63 64 65 66 67 68 69 70 71 72 73 74 75 76 77 78 79 80 81 82 83 84 85 86 87 88 89 90 91 92 93 94 95 96 97 98 99 100 101 102 103 104 105 106 107 108 109 110 811 812 813 814 815 816 817 818 819 820 821 822 823 824 825 826 827 828 829 830 831 832 833 834 855 856 857 858 859 860 861 862 863 864 865 866 867 868 869 870 871 872 873 874 875 876 877 878 899 900 901 902 903 904 905 906 907 908 909 910 911 912 913 914 915 916 917 918 919 920 921 922 943 944 945 946 947 948 949 950 951 952 953 954 955 956 957 958 959 960 961 962 963 964 965 966 0
e 1 2 3 4 5 6 7 8 9 10 11 12 13 14 15 16 17 18 19 20 21 22 23 24 25 26 27 28 29 30 31 32 33 34 35 36 111 112 113 114 115 116 117 118 119 120 121 122 123 124 125 126 127 128 129 130 131 132 133 134 135 136 137 138 139 140 141 142 143 144 145 146 147 148 149 150 151 152 153 154 155 156 157 158 159 160 161 162 163 164 165 166 167 168 169 170 171 172 173 174 175 176 177 178 179 180 181 182 183 184 185 186 187 188 189 190 191 192 193 194 195 196 197 198 199 200 201 202 203 204 205 206 207 208 209 210 211 212 213 214 215 216 217 218 219 220 221 222 223 224 225 226 227 228 229 230 231 232 233 234 235 236 237 238 239 240 241 242 243 244 245 246 247 248 249 250 251 252 253 254 255 256 257 258 259 260 261 262 263 264 265 266 267 268 269 270 271 272 273 274 275 276 277 278 279 280 281 282 283 284 285 286 287 288 289 290 291 292 293 294 295 296 297 298 299 300 301 302 303 304 305 306 307 308 309 310 311 312 313 314 315 316 317 318 319 320 321 322 323 324 325 326 327 328 329 330 331 332 333 334 335 336 337 338 339 340 341 342 343 344 345 346 347 348 349 350 351 352 353 354 355 356 357 358 359 360 361 362 363 364 365 366 367 368 369 370 371 372 373 374 375 376 377 378 379 380 381 382 383 384 385 386 387 388 389 390 391 392 393 394 395 396 397 398 399 400 401 402 403 404 405 406 407 408 409 410 411 412 413 414 415 416 417 418 419 420 421 422 423 424 425 426 427 428 429 430 431 432 433 434 435 436 437 438 439 440 441 442 443 444 445 446 447 448 449 450 451 452 453 454 455 456 457 458 459 460 461 462 463 464 465 466 467 468 469 470 471 472 473 474 475 476 477 478 479 480 481 482 483 484 485 486 487 488 489 490 491 492 493 494 495 496 497 498 499 500 501 502 503 504 505 506 507 508 509 510 511 512 513 514 515 516 517 518 519 520 521 522 523 524 525 526 527 528 529 530 531 532 533 534 535 536 537 538 539 540 541 542 543 544 545 546 547 548 549 550 551 552 553 554 555 556 557 558 559 560 561 562 563 564 565 566 567 568 569 570 571 572 573 574 575 576 577 578 579 580 581 582 583 584 585 586 587 588 589 590 591 592 593 594 595 596 597 598 599 600 601 602 603 604 605 606 607 608 609 610 611 612 613 614 615 616 617 618 619 620 621 622 623 624 625 626 627 628 629 630 631 632 633 634 635 636 637 638 639 640 641 642 643 644 645 646 647 648 649 650 651 652 653 654 655 656 657 658 659 660 661 662 663 664 665 666 667 668 669 670 671 672 673 674 675 676 677 678 679 680 681 682 683 684 685 686 687 688 689 690 691 692 693 694 695 696 697 698 699 700 701 702 703 704 705 706 707 708 709 710 711 712 713 714 715 716 717 718 719 720 721 722 723 724 725 726 727 728 729 730 731 732 733 734 735 736 737 738 739 740 741 742 743 744 745 746 747 748 749 750 751 752 753 754 755 756 757 758 759 760 761 762 763 764 765 766 767 768 769 770 771 772 773 774 775 776 777 778 779 780 781 782 783 784 785 786 787 788 789 790 791 792 793 794 795 796 797 798 799 800 801 802 803 804 805 806 807 808 809 810 835 836 837 838 839 840 841 842 843 844 845 846 847 848 849 850 851 852 853 854 879 880 881 882 883 884 885 886 887 888 889 890 891 892 893 894 895 896 897 898 923 924 925 926 927 928 929 930 931 932 933 934 935 936 937 938 939 940 941 942 967 968 969 970 971 972 973 974 975 976 977 978 979 980 981 982 983 984 985 986 0
390 391 392 393 394 395 396 397 398 399 400 401 402 403 404 405 406 407 408 409 410 411 412 413 414 415 416 417 418 419 420 421 422 423 424 425 426 427 428 429 430 431 432 433 434 435 436 437 438 439 440 441 442 443 444 445 446 447 448 449 450 451 452 453 454 455 456 457 458 459 460 461 462 463 464 465 466 467 468 469 470 471 472 473 474 475 476 477 478 479 480 481 482 483 484 485 486 487 488 489 490 491 492 493 494 495 496 497 498 499 500 501 502 503 504 505 506 507 508 509 510 511 512 513 514 515 516 517 518 519 520 521 522 523 524 525 526 527 528 529 530 531 532 533 534 535 536 537 538 539 540 541 542 543 544 545 546 547 548 549 550 551 552 553 554 555 556 557 558 559 560 561 562 563 564 565 566 567 568 569 570 571 572 573 574 575 576 577 578 579 580 581 582 583 584 585 586 587 588 589 590 591 592 593 594 595 596 597 598 599 600 601 602 603 604 605 606 607 608 609 610 611 612 613 614 615 616 617 618 619 620 621 622 623 624 625 626 627 628 629 630 631 632 633 634 635 636 637 638 639 640 641 642 643 644 645 646 647 648 649 650 651 652 653 654 655 656 657 658 659 660 661 662 663 664 665 666 667 668 669 670 671 672 673 674 675 676 677 678 679 680 681 682 683 684 685 686 687 688 689 690 691 692 693 694 695 696 697 698 699 700 701 702 703 704 705 706 707 708 709 710 711 712 713 714 715 716 717 718 719 720 721 722 723 724 725 726 727 728 729 730 731 732 733 734 735 736 737 738 739 740 741 742 743 744 745 746 747 748 749 750 751 752 753 754 755 756 757 758 759 760 761 762 763 764 765 766 767 768 769 770 771 772 773 774 775 776 777 778 779 780 781 782 783 784 785 786 787 788 789 790 791 792 793 794 795 796 797 798 799 800 801 802 803 804 805 806 807 808 809 810 0
-390 379 380 381 382 383 384 385 386 387 388 389 0
-391 97 0
-391 -98 0
-392 40 0
-392 -98 0
-393 97 0
-393 40 0
-394 96 0
-394 -97 0
-395 39 0
-395 -97 0
-396 96 0
-396 39 0
-397 37 0
-397 -96 0
-398 38 0
-398 -96 0
-399 37 0
-399 38 0
-400 94 0
-400 -95 0
-401 43 0
-401 -95 0
-402 94 0
-402 43 0
-403 41 0
-403 -94 0
-404 42 0
-404 -94 0
-405 41 0
-405 42 0
-406 37 0
-406 43 0
-407 37 0
-407 42 0
-408 37 0
-408 41 0
-409 44 0
-409 -93 0
-410 45 0
-410 -93 0
-411 44 0
-411 45 0
-412 92 0
-412 45 0
-413 92 0
-413 44 0
-414 38 0
-414 -92 0
-415 41 0
-415 -92 0
-416 38 0
-416 41 0
-417 91 0
-417 46 0
-418 90 0
-418 -91 0
-419 44 0
-419 -91 0
-420 90 0
-420 44 0
-421 39 0
-421 -90 0
-422 42 0
-422 -90 0
-423 39 0
-423 42 0
-424 88 0
-424 -89 0
-425 46 0
-425 -89 0
-426 88 0
-426 46 0
-427 87 0
-427 -88 0
-428 45 0
-428 -88 0
-429 87 0
-429 45 0
-430 40 0
-430 -87 0
-431 43 0
-431 -87 0
-432 40 0
-432 43 0
-433 109 0
-433 -110 0
-434 37 0
-434 -110 0
-435 109 0
-435 37 0
-436 108 0
-436 -109 0
-437 38 0
-437 -109 0
-438 108 0
-438 38 0
-439 40 0
-439 -108 0
-440 39 0
-440 -108 0
-441 40 0
-441 39 0
-442 107 0
-442 37 0
-443 106 0
-443 -107 0
-444 41 0
-444 -107 0
-445 106 0
-445 41 0
-446 43 0
-446 -106 0
-447 42 0
-447 -106 0
-448 43 0
-448 42 0
-449 105 0
-449 38 0
-450 105 0
-450 41 0
-451 45 0
-451 -105 0
-452 44 0
-452 -105 0
-453 45 0
-453 44 0
-454 41 0
-454 -104 0
-455 38 0
-455 -104 0
-456 41 0
-456 38 0
-457 46 0
-457 39 0
-458 46 0
-458 42 0
-459 46 0
-459 44 0
-460 102 0
-460 -103 0
-461 39 0
-461 -103 0
-462 102 0
-462 39 0
-463 44 0
-463 -102 0
-464 42 0
-464 -102 0
-465 44 0
-465 42 0
-466 100 0
-466 -101 0
-467 40 0
-467 -101 0
-468 100 0
-468 40 0
-469 99 0
-469 -100 0
-470 43 0
-470 -100 0
-471 99 0
-471 43 0
-472 46 0
-472 -99 0
-473 45 0
-473 -99 0
-474 46 0
-474 45 0
-475 821 0
-475 -822 0
-476 50 0
-476 -822 0
-477 821 0
-477 50 0
-478 820 0
-478 -821 0
-479 49 0
-479 -821 0
-480 820 0
-480 49 0
-481 47 0
-481 -820 0
-482 48 0
-482 -820 0
-483 47 0
-483 48 0
-484 818 0
-484 -819 0
-485 53 0
-485 -819 0
-486 818 0
-486 53 0
-487 51 0
-487 -818 0
-488 52 0
-488 -818 0
-489 51 0
-489 52 0
-490 47 0
-490 53 0
-491 47 0
-491 52 0
-492 47 0
-492 51 0
-493 54 0
-493 -817 0
-494 55 0
-494 -817 0
-495 54 0
-495 55 0
-496 816 0
-496 55 0
-497 816 0
-497 54 0
-498 48 0
-498 -816 0
-499 51 0
-499 -816 0
-500 48 0
-500 51 0
-501 815 0
-501 56 0
-502 814 0
-502 -815 0
-503 54 0
-503 -815 0
-504 814 0
-504 54 0
-505 49 0
-505 -814 0
-506 52 0
-506 -814 0
-507 49 0
-507 52 0
-508 812 0
-508 -813 0
-509 56 0
-509 -813 0
-510 812 0
-510 56 0
-511 811 0
-511 -812 0
-512 55 0
-512 -812 0
-513 811 0
-513 55 0
-514 50 0
-514 -811 0
-515 53 0
-515 -811 0
-516 50 0
-516 53 0
-517 833 0
-517 -834 0
-518 47 0
-518 -834 0
-519 833 0
-519 47 0
-520 832 0
-520 -833 0
-521 48 0
-521 -833 0
-522 832 0
-522 48 0
-523 50 0
-523 -832 0
-524 49 0
-524 -832 0
-525 50 0
-525 49 0
-526 831 0
-526 47 0
-527 830 0
-527 -831 0
-528 51 0
-528 -831 0
-529 830 0
-529 51 0
-530 53 0
-530 -830 0
-531 52 0
-531 -830 0
-532 53 0
-532 52 0
-533 829 0
-533 48 0
-534 829 0
-534 51 0
-535 55 0
-535 -829 0
-536 54 0
-536 -829 0
-537 55 0
-537 54 0
-538 51 0
-538 -828 0
-539 48 0
-539 -828 0
-540 51 0
-540 48 0
-541 56 0
-541 49 0
-542 56 0
-542 52 0
-543 56 0
-543 54 0
-544 826 0
-544 -827 0
-545 49 0
-545 -827 0
-546 826 0
-546 49 0
-547 54 0
-547 -826 0
-548 52 0
-548 -826 0
-549 54 0
-549 52 0
-550 824 0
-550 -825 0
-551 50 0
-551 -825 0
-552 824 0
-552 50 0
-553 823 0
-553 -824 0
-554 53 0
-554 -824 0
-555 823 0
-555 53 0
-556 56 0
-556 -823 0
-557 55 0
-557 -823 0
-558 56 0
-558 55 0
-559 865 0
-559 -866 0
-560 60 0
-560 -866 0
-561 865 0
-561 60 0
-562 864 0
-562 -865 0
-563 59 0
-563 -865 0
-564 864 0
-564 59 0
-565 57 0
-565 -864 0
-566 58 0
-566 -864 0
-567 57 0
-567 58 0
-568 862 0
-568 -863 0
-569 63 0
-569 -863 0
-570 862 0
-570 63 0
-571 61 0
-571 -862 0
-572 62 0
-572 -862 0
-573 61 0
-573 62 0
-574 57 0
-574 63 0
-575 57 0
-575 62 0
-576 57 0
-576 61 0
-577 64 0
-577 -861 0
-578 65 0
-578 -861 0
-579 64 0
-579 65 0
-580 860 0
-580 65 0
-581 860 0
-581 64 0
-582 58 0
-582 -860 0
-583 61 0
-583 -860 0
-584 58 0
-584 61 0
-585 859 0
-585 66 0
-586 858 0
-586 -859 0
-587 64 0
-587 -859 0
-588 858 0
-588 64 0
-589 59 0
-589 -858 0
-590 62 0
-590 -858 0
-591 59 0
-591 62 0
-592 856 0
-592 -857 0
-593 66 0
-593 -857 0
-594 856 0
-594 66 0
-595 855 0
-595 -856 0
-596 65 0
-596 -856 0
-597 855 0
-597 65 0
-598 60 0
-598 -855 0
-599 63 0
-599 -855 0
-600 60 0
-600 63 0
-601 877 0
-601 -878 0
-602 57 0
-602 -878 0
-603 877 0
-603 57 0
-604 876 0
-604 -877 0
-605 58 0
-605 -877 0
-606 876 0
-606 58 0
-607 60 0
-607 -876 0
-608 59 0
-608 -876 0
-609 60 0
-609 59 0
-610 875 0
-610 57 0
-611 874 0
-611 -875 0
-612 61 0
-612 -875 0
-613 874 0
-613 61 0
-614 63 0
-614 -874 0
-615 62 0
-615 -874 0
-616 63 0
-616 62 0
-617 873 0
-617 58 0
-618 873 0
-618 61 0
-619 65 0
-619 -873 0
-620 64 0
-620 -873 0
-621 65 0
-621 64 0
-622 61 0
-622 -872 0
-623 58 0
-623 -872 0
-624 61 0
-624 58 0
-625 66 0
-625 59 0
-626 66 0
-626 62 0
-627 66 0
-627 64 0
-628 870 0
-628 -871 0
-629 59 0
-629 -871 0
-630 870 0
-630 59 0
-631 64 0
-631 -870 0
-632 62 0
-632 -870 0
-633 64 0
-633 62 0
-634 868 0
-634 -869 0
-635 60 0
-635 -869 0
-636 868 0
-636 60 0
-637 867 0
-637 -868 0
-638 63 0
-638 -868 0
-639 867 0
-639 63 0
-640 66 0
-640 -867 0
-641 65 0
-641 -867 0
-642 66 0
-642 65 0
-643 909 0
-643 -910 0
-644 70 0
-644 -910 0
-645 909 0
-645 70 0
-646 908 0
-646 -909 0
-647 69 0
-647 -909 0
-648 908 0
-648 69 0
-649 67 0
-649 -908 0
-650 68 0
-650 -908 0
-651 67 0
-651 68 0
-652 906 0
-652 -907 0
-653 73 0
-653 -907 0
-654 906 0
-654 73 0
-655 71 0
-655 -906 0
-656 72 0
-656 -906 0
-657 71 0
-657 72 0
-658 67 0
-658 73 0
-659 67 0
-659 72 0
-660 67 0
-660 71 0
-661 74 0
-661 -905 0
-662 75 0
-662 -905 0
-663 74 0
-663 75 0
-664 904 0
-664 75 0
-665 904 0
-665 74 0
-666 68 0
-666 -904 0
-667 71 0
-667 -904 0
-668 68 0
-668 71 0
-669 903 0
-669 76 0
-670 902 0
-670 -903 0
-671 74 0
-671 -903 0
-672 902 0
-672 74 0
-673 69 0
-673 -902 0
-674 72 0
-674 -902 0
-675 69 0
-675 72 0
-676 900 0
-676 -901 0
-677 76 0
-677 -901 0
-678 900 0
-678 76 0
-679 899 0
-679 -900 0
-680 75 0
-680 -900 0
-681 899 0
-681 75 0
-682 70 0
-682 -899 0
-683 73 0
-683 -899 0
-684 70 0
-684 73 0
-685 921 0
-685 -922 0
-686 67 0
-686 -922 0
-687 921 0
-687 67 0
-688 920 0
-688 -921 0
-689 68 0
-689 -921 0
-690 920 0
-690 68 0
-691 70 0
-691 -920 0
-692 69 0
-692 -920 0
-693 70 0
-693 69 0
-694 919 0
-694 67 0
-695 918 0
-695 -919 0
-696 71 0
-696 -919 0
-697 918 0
-697 71 0
-698 73 0
-698 -918 0
-699 72 0
-699 -918 0
-700 73 0
-700 72 0
-701 917 0
-701 68 0
-702 917 0
-702 71 0
-703 75 0
-703 -917 0
-704 74 0
-704 -917 0
-705 75 0
-705 74 0
-706 71 0
-706 -916 0
-707 68 0
-707 -916 0
-708 71 0
-708 68 0
-709 76 0
-709 69 0
-710 76 0
-710 72 0
-711 76 0
-711 74 0
-712 914 0
-712 -915 0
-713 69 0
-713 -915 0
-714 914 0
-714 69 0
-715 74 0
-715 -914 0
-716 72 0
-716 -914 0
-717 74 0
-717 72 0
-718 912 0
-718 -913 0
-719 70 0
-719 -913 0
-720 912 0
-720 70 0
-721 911 0
-721 -912 0
-722 73 0
-722 -912 0
-723 911 0
-723 73 0
-724 76 0
-724 -911 0
-725 75 0
-725 -911 0
-726 76 0
-726 75 0
-727 953 0
-727 -954 0
-728 80 0
-728 -954 0
-729 953 0
-729 80 0
-730 952 0
-730 -953 0
-731 79 0
-731 -953 0
-732 952 0
-732 79 0
-733 77 0
-733 -952 0
-734 78 0
-734 -952 0
-735 77 0
-735 78 0
-736 950 0
-736 -951 0
-737 83 0
-737 -951 0
-738 950 0
-738 83 0
-739 81 0
-739 -950 0
-740 82 0
-740 -950 0
-741 81 0
-741 82 0
-742 77 0
-742 83 0
-743 77 0
-743 82 0
-744 77 0
-744 81 0
-745 84 0
-745 -949 0
-746 85 0
-746 -949 0
-747 84 0
-747 85 0
-748 948 0
-748 85 0
-749 948 0
-749 84 0
-750 78 0
-750 -948 0
-751 81 0
-751 -948 0
-752 78 0
-752 81 0
-753 947 0
-753 86 0
-754 946 0
-754 -947 0
-755 84 0
-755 -947 0
-756 946 0
-756 84 0
-757 79 0
-757 -946 0
-758 82 0
-758 -946 0
-759 79 0
-759 82 0
-760 944 0
-760 -945 0
-761 86 0
-761 -945 0
-762 944 0
-762 86 0
-763 943 0
-763 -944 0
-764 85 0
-764 -944 0
-765 943 0
-765 85 0
-766 80 0
-766 -943 0
-767 83 0
-767 -943 0
-768 80 0
-768 83 0
-769 965 0
-769 -966 0
-770 77 0
-770 -966 0
-771 965 0
-771 77 0
-772 964 0
-772 -965 0
-773 78 0
-773 -965 0
-774 964 0
-774 78 0
-775 80 0
-775 -964 0
-776 79 0
-776 -964 0
-777 80 0
-777 79 0
-778 963 0
-778 77 0
-779 962 0
-779 -963 0
-780 81 0
-780 -963 0
-781 962 0
-781 81 0
-782 83 0
-782 -962 0
-783 82 0
-783 -962 0
-784 83 0
-784 82 0
-785 961 0
-785 78 0
-786 961 0
-786 81 0
-787 85 0
-787 -961 0
-788 84 0
-788 -961 0
-789 85 0
-789 84 0
-790 81 0
-790 -960 0
-791 78 0
-791 -960 0
-792 81 0
-792 78 0
-793 86 0
-793 79 0
-794 86 0
-794 82 0
-795 86 0
-795 84 0
-796 958 0
-796 -959 0
-797 79 0
-797 -959 0
-798 958 0
-798 79 0
-799 84 0
-799 -958 0
-800 82 0
-800 -958 0
-801 84 0
-801 82 0
-802 956 0
-802 -957 0
-803 80 0
-803 -957 0
-804 956 0
-804 80 0
-805 955 0
-805 -956 0
-806 83 0
-806 -956 0
-807 955 0
-807 83 0
-808 86 0
-808 -955 0
-809 85 0
-809 -955 0
-810 86 0
-810 85 0
-379 1 -7 0
-379 -1 7 114 113 112 111 0
-379 -114 378 0
-379 -37 -1 2 114 0
-379 -113 377 0
-379 -38 -1 3 113 0
-379 -112 376 0
-379 -39 -1 4 112 0
-379 -111 375 0
-379 -40 -1 5 111 0
-379 2 -8 115 0
-379 -2 8 118 117 116 0
-379 -115 374 0
-379 -37 -1 2 115 0
-379 -118 373 0
-379 -41 -2 3 118 0
-379 -117 372 0
-379 -42 -2 4 117 0
-379 -116 371 0
-379 -43 -2 5 116 0
-379 3 -9 120 119 0
-379 -3 9 122 121 0
-379 -120 370 0
-379 -38 -1 3 120 0
-379 -119 369 0
-379 -41 -2 3 119 0
-379 -122 368 0
-379 -44 -3 4 122 0
-379 -121 367 0
-379 -45 -3 5 121 0
-379 4 -10 125 124 123 0
-379 -4 10 126 0
-379 -125 366 0
-379 -39 -1 4 125 0
-379 -124 365 0
-379 -42 -2 4 124 0
-379 -123 364 0
-379 -44 -3 4 123 0
-379 -126 363 0
-379 -46 -4 5 126 0
-379 5 -11 130 129 128 127 0
-379 -5 11 0
-379 -130 362 0
-379 -40 -1 5 130 0
-379 -129 361 0
-379 -43 -2 5 129 0
-379 -128 360 0
-379 -45 -3 5 128 0
-379 -127 359 0
-379 -46 -4 5 127 0
-379 6 -12 0
-379 -6 12 0
-379 357 358 0
-379 355 356 0
-379 353 354 0
-379 351 352 0
-379 349 350 0
-379 347 348 0
-379 345 346 0
-379 343 344 0
-379 341 342 0
-379 339 340 0
-379 328 329 330 331 332 333 334 335 336 337 338 0
-380 0
-381 0
-382 0
-383 0
-384 0
-385 0
-386 0
-387 0
-388 0
-389 0
-378 37 0
-378 1 0
-378 -2 0
-377 38 0
-377 1 0
-377 -3 0
-376 39 0
-376 1 0
-376 -4 0
-375 40 0
-375 1 0
-375 -5 0
-374 37 0
-374 1 0
-374 -2 0
-373 41 0
-373 2 0
-373 -3 0
-372 42 0
-372 2 0
-372 -4 0
-371 43 0
-371 2 0
-371 -5 0
-370 38 0
-370 1 0
-370 -3 0
-369 41 0
-369 2 0
-369 -3 0
-368 44 0
-368 3 0
-368 -4 0
-367 45 0
-367 3 0
-367 -5 0
-366 39 0
-366 1 0
-366 -4 0
-365 42 0
-365 2 0
-365 -4 0
-364 44 0
-364 3 0
-364 -4 0
-363 46 0
-363 4 0
-363 -5 0
-362 40 0
-362 1 0
-362 -5 0
-361 43 0
-361 2 0
-361 -5 0
-360 45 0
-360 3 0
-360 -5 0
-359 46 0
-359 4 0
-359 -5 0
-357 -37 -1 2 0
-358 -7 0
-358 8 0
-355 -38 -1 3 0
-356 -7 0
-356 9 0
-353 -39 -1 4 0
-354 -7 0
-354 10 0
-351 -40 -1 5 0
-352 -7 0
-352 11 0
-349 -41 -2 3 0
-350 -8 0
-350 9 0
-347 -42 -2 4 0
-348 -8 0
-348 10 0
-345 -43 -2 5 0
-346 -8 0
-346 11 0
-343 -44 -3 4 0
-344 -9 0
-344 10 0
-341 -45 -3 5 0
-342 -9 0
-342 11 0
-339 -46 -4 5 0
-340 -10 0
-340 11 0
-328 7 -13 0
-328 -7 13 838 837 836 835 0
-328 -838 327 0
-328 -47 -7 8 838 0
-328 -837 326 0
-328 -48 -7 9 837 0
-328 -836 325 0
-328 -49 -7 10 836 0
-328 -835 324 0
-328 -50 -7 11 835 0
-328 8 -14 839 0
-328 -8 14 842 841 840 0
-328 -839 323 0
-328 -47 -7 8 839 0
-328 -842 322 0
-328 -51 -8 9 842 0
-328 -841 321 0
-328 -52 -8 10 841 0
-328 -840 320 0
-328 -53 -8 11 840 0
-328 9 -15 844 843 0
-328 -9 15 846 845 0
-328 -844 319 0
-328 -48 -7 9 844 0
-328 -843 318 0
-328 -51 -8 9 843 0
-328 -846 317 0
-328 -54 -9 10 846 0
-328 -845 316 0
-328 -55 -9 11 845 0
-328 10 -16 849 848 847 0
-328 -10 16 850 0
-328 -849 315 0
-328 -49 -7 10 849 0
-328 -848 314 0
-328 -52 -8 10 848 0
-328 -847 313 0
-328 -54 -9 10 847 0
-328 -850 312 0
-328 -56 -10 11 850 0
-328 11 -17 854 853 852 851 0
-328 -11 17 0
-328 -854 311 0
-328 -50 -7 11 854 0
-328 -853 310 0
-328 -53 -8 11 853 0
-328 -852 309 0
-328 -55 -9 11 852 0
-328 -851 308 0
-328 -56 -10 11 851 0
-328 12 -18 0
-328 -12 18 0
-328 306 307 0
-328 304 305 0
-328 302 303 0
-328 300 301 0
-328 298 299 0
-328 296 297 0
-328 294 295 0
-328 292 293 0
-328 290 291 0
-328 288 289 0
-328 277 278 279 280 281 282 283 284 285 286 287 0
-329 0
-330 0
-331 0
-332 0
-333 0
-334 0
-335 0
-336 0
-337 0
-338 0
-327 47 0
-327 7 0
-327 -8 0
-326 48 0
-326 7 0
-326 -9 0
-325 49 0
-325 7 0
-325 -10 0
-324 50 0
-324 7 0
-324 -11 0
-323 47 0
-323 7 0
-323 -8 0
-322 51 0
-322 8 0
-322 -9 0
-321 52 0
-321 8 0
-321 -10 0
-320 53 0
-320 8 0
-320 -11 0
-319 48 0
-319 7 0
-319 -9 0
-318 51 0
-318 8 0
-318 -9 0
-317 54 0
-317 9 0
-317 -10 0
-316 55 0
-316 9 0
-316 -11 0
-315 49 0
-315 7 0
-315 -10 0
-314 52 0
-314 8 0
-314 -10 0
-313 54 0
-313 9 0
-313 -10 0
-312 56 0
-312 10 0
-312 -11 0
-311 50 0
-311 7 0
-311 -11 0
-310 53 0
-310 8 0
-310 -11 0
-309 55 0
-309 9 0
-309 -11 0
-308 56 0
-308 10 0
-308 -11 0
-306 -47 -7 8 0
-307 -13 0
-307 14 0
-304 -48 -7 9 0
-305 -13 0
-305 15 0
-302 -49 -7 10 0
-303 -13 0
-303 16 0
-300 -50 -7 11 0
-301 -13 0
-301 17 0
-298 -51 -8 9 0
-299 -14 0
-299 15 0
-296 -52 -8 10 0
-297 -14 0
-297 16 0
-294 -53 -8 11 0
-295 -14 0
-295 17 0
-292 -54 -9 10 0
-293 -15 0
-293 16 0
-290 -55 -9 11 0
-291 -15 0
-291 17 0
-288 -56 -10 11 0
-289 -16 0
-289 17 0
-277 13 -19 0
-277 -13 19 882 881 880 879 0
-277 -882 276 0
-277 -57 -13 14 882 0
-277 -881 275 0
-277 -58 -13 15 881 0
-277 -880 274 0
-277 -59 -13 16 880 0
-277 -879 273 0
-277 -60 -13 17 879 0
-277 14 -20 883 0
-277 -14 20 886 885 884 0
-277 -883 272 0
-277 -57 -13 14 883 0
-277 -886 271 0
-277 -61 -14 15 886 0
-277 -885 270 0
-277 -62 -14 16 885 0
-277 -884 269 0
-277 -63 -14 17 884 0
-277 15 -21 888 887 0
-277 -15 21 890 889 0
-277 -888 268 0
-277 -58 -13 15 888 0
-277 -887 267 0
-277 -61 -14 15 887 0
-277 -890 266 0
-277 -64 -15 16 890 0
-277 -889 265 0
-277 -65 -15 17 889 0
-277 16 -22 893 892 891 0
-277 -16 22 894 0
-277 -893 264 0
-277 -59 -13 16 893 0
-277 -892 263 0
-277 -62 -14 16 892 0
-277 -891 262 0
-277 -64 -15 16 891 0
-277 -894 261 0
-277 -66 -16 17 894 0
-277 17 -23 898 897 896 895 0
-277 -17 23 0
-277 -898 260 0
-277 -60 -13 17 898 0
-277 -897 259 0
-277 -63 -14 17 897 0
-277 -896 258 0
-277 -65 -15 17 896 0
-277 -895 257 0
-277 -66 -16 17 895 0
-277 18 -24 0
-277 -18 24 0
-277 255 256 0
-277 253 254 0
-277 251 252 0
-277 249 250 0
-277 247 248 0
-277 245 246 0
-277 243 244 0
-277 241 242 0
-277 239 240 0
-277 237 238 0
-277 226 227 228 229 230 231 232 233 234 235 236 0
-278 0
-279 0
-280 0
-281 0
-282 0
-283 0
-284 0
-285 0
-286 0
-287 0
-276 57 0
-276 13 0
-276 -14 0
-275 58 0
-275 13 0
-275 -15 0
-274 59 0
-274 13 0
-274 -16 0
-273 60 0
-273 13 0
-273 -17 0
-272 57 0
-272 13 0
-272 -14 0
-271 61 0
-271 14 0
-271 -15 0
-270 62 0
-270 14 0
-270 -16 0
-269 63 0
-269 14 0
-269 -17 0
-268 58 0
-268 13 0
-268 -15 0
-267 61 0
-267 14 0
-267 -15 0
-266 64 0
-266 15 0
-266 -16 0
-265 65 0
-265 15 0
-265 -17 0
-264 59 0
-264 13 0
-264 -16 0
-263 62 0
-263 14 0
-263 -16 0
-262 64 0
-262 15 0
-262 -16 0
-261 66 0
-261 16 0
-261 -17 0
-260 60 0
-260 13 0
-260 -17 0
-259 63 0
-259 14 0
-259 -17 0
-258 65 0
-258 15 0
-258 -17 0
-257 66 0
-257 16 0
-257 -17 0
-255 -57 -13 14 0
-256 -19 0
-256 20 0
-253 -58 -13 15 0
-254 -19 0
-254 21 0
-251 -59 -13 16 0
-252 -19 0
-252 22 0
-249 -60 -13 17 0
-250 -19 0
-250 23 0
-247 -61 -14 15 0
-248 -20 0
-248 21 0
-245 -62 -14 16 0
-246 -20 0
-246 22 0
-243 -63 -14 17 0
-244 -20 0
-244 23 0
-241 -64 -15 16 0
-242 -21 0
-242 22 0
-239 -65 -15 17 0
-240 -21 0
-240 23 0
-237 -66 -16 17 0
-238 -22 0
-238 23 0
-226 19 -25 0
-226 -19 25 926 925 924 923 0
-226 -926 225 0
-226 -67 -19 20 926 0
-226 -925 224 0
-226 -68 -19 21 925 0
-226 -924 223 0
-226 -69 -19 22 924 0
-226 -923 222 0
-226 -70 -19 23 923 0
-226 20 -26 927 0
-226 -20 26 930 929 928 0
-226 -927 221 0
-226 -67 -19 20 927 0
-226 -930 220 0
-226 -71 -20 21 930 0
-226 -929 219 0
-226 -72 -20 22 929 0
-226 -928 218 0
-226 -73 -20 23 928 0
-226 21 -27 932 931 0
-226 -21 27 934 933 0
-226 -932 217 0
-226 -68 -19 21 932 0
-226 -931 216 0
-226 -71 -20 21 931 0
-226 -934 215 0
-226 -74 -21 22 934 0
-226 -933 214 0
-226 -75 -21 23 933 0
-226 22 -28 937 936 935 0
-226 -22 28 938 0
-226 -937 213 0
-226 -69 -19 22 937 0
-226 -936 212 0
-226 -72 -20 22 936 0
-226 -935 211 0
-226 -74 -21 22 935 0
-226 -938 210 0
-226 -76 -22 23 938 0
-226 23 -29 942 941 940 939 0
-226 -23 29 0
-226 -942 209 0
-226 -70 -19 23 942 0
-226 -941 208 0
-226 -73 -20 23 941 0
-226 -940 207 0
-226 -75 -21 23 940 0
-226 -939 206 0
-226 -76 -22 23 939 0
-226 24 -30 0
-226 -24 30 0
-226 204 205 0
-226 202 203 0
-226 200 201 0
-226 198 199 0
-226 196 197 0
-226 194 195 0
-226 192 193 0
-226 190 191 0
-226 188 189 0
-226 186 187 0
-226 175 176 177 178 179 180 181 182 183 184 185 0
-227 0
-228 0
-229 0
-230 0
-231 0
-232 0
-233 0
-234 0
-235 0
-236 0
-225 67 0
-225 19 0
-225 -20 0
-224 68 0
-224 19 0
-224 -21 0
-223 69 0
-223 19 0
-223 -22 0
-222 70 0
-222 19 0
-222 -23 0
-221 67 0
-221 19 0
-221 -20 0
-220 71 0
-220 20 0
-220 -21 0
-219 72 0
-219 20 0
-219 -22 0
-218 73 0
-218 20 0
-218 -23 0
-217 68 0
-217 19 0
-217 -21 0
-216 71 0
-216 20 0
-216 -21 0
-215 74 0
-215 21 0
-215 -22 0
-214 75 0
-214 21 0
-214 -23 0
-213 69 0
-213 19 0
-213 -22 0
-212 72 0
-212 20 0
-212 -22 0
-211 74 0
-211 21 0
-211 -22 0
-210 76 0
-210 22 0
-210 -23 0
-209 70 0
-209 19 0
-209 -23 0
-208 73 0
-208 20 0
-208 -23 0
-207 75 0
-207 21 0
-207 -23 0
-206 76 0
-206 22 0
-206 -23 0
-204 -67 -19 20 0
-205 -25 0
-205 26 0
-202 -68 -19 21 0
-203 -25 0
-203 27 0
-200 -69 -19 22 0
-201 -25 0
-201 28 0
-198 -70 -19 23 0
-199 -25 0
-199 29 0
-196 -71 -20 21 0
-197 -26 0
-197 27 0
-194 -72 -20 22 0
-195 -26 0
-195 28 0
-192 -73 -20 23 0
-193 -26 0
-193 29 0
-190 -74 -21 22 0
-191 -27 0
-191 28 0
-188 -75 -21 23 0
-189 -27 0
-189 29 0
-186 -76 -22 23 0
-187 -28 0
-187 29 0
-175 25 -31 0
-175 -25 31 970 969 968 967 0
-175 -970 174 0
-175 -77 -25 26 970 0
-175 -969 173 0
-175 -78 -25 27 969 0
-175 -968 172 0
-175 -79 -25 28 968 0
-175 -967 171 0
-175 -80 -25 29 967 0
-175 26 -32 971 0
-175 -26 32 974 973 972 0
-175 -971 170 0
-175 -77 -25 26 971 0
-175 -974 169 0
-175 -81 -26 27 974 0
-175 -973 168 0
-175 -82 -26 28 973 0
-175 -972 167 0
-175 -83 -26 29 972 0
-175 27 -33 976 975 0
-175 -27 33 978 977 0
-175 -976 166 0
-175 -78 -25 27 976 0
-175 -975 165 0
-175 -81 -26 27 975 0
-175 -978 164 0
-175 -84 -27 28 978 0
-175 -977 163 0
-175 -85 -27 29 977 0
-175 28 -34 981 980 979 0
-175 -28 34 982 0
-175 -981 162 0
-175 -79 -25 28 981 0
-175 -980 161 0
-175 -82 -26 28 980 0
-175 -979 160 0
-175 -84 -27 28 979 0
-175 -982 159 0
-175 -86 -28 29 982 0
-175 29 -35 986 985 984 983 0
-175 -29 35 0
-175 -986 158 0
-175 -80 -25 29 986 0
-175 -985 157 0
-175 -83 -26 29 985 0
-175 -984 156 0
-175 -85 -27 29 984 0
-175 -983 155 0
-175 -86 -28 29 983 0
-175 30 -36 0
-175 -30 36 0
-175 153 154 0
-175 151 152 0
-175 149 150 0
-175 147 148 0
-175 145 146 0
-175 143 144 0
-175 141 142 0
-175 139 140 0
-175 137 138 0
-175 135 136 0
-175 131 132 133 134 0
-176 0
-177 0
-178 0
-179 0
-180 0
-181 0
-182 0
-183 0
-184 0
-185 0
-174 77 0
-174 25 0
-174 -26 0
-173 78 0
-173 25 0
-173 -27 0
-172 79 0
-172 25 0
-172 -28 0
-171 80 0
-171 25 0
-171 -29 0
-170 77 0
-170 25 0
-170 -26 0
-169 81 0
-169 26 0
-169 -27 0
-168 82 0
-168 26 0
-168 -28 0
-167 83 0
-167 26 0
-167 -29 0
-166 78 0
-166 25 0
-166 -27 0
-165 81 0
-165 26 0
-165 -27 0
-164 84 0
-164 27 0
-164 -28 0
-163 85 0
-163 27 0
-163 -29 0
-162 79 0
-162 25 0
-162 -28 0
-161 82 0
-161 26 0
-161 -28 0
-160 84 0
-160 27 0
-160 -28 0
-159 86 0
-159 28 0
-159 -29 0
-158 80 0
-158 25 0
-158 -29 0
-157 83 0
-157 26 0
-157 -29 0
-156 85 0
-156 27 0
-156 -29 0
-155 86 0
-155 28 0
-155 -29 0
-153 -77 -25 26 0
-154 -31 0
-154 32 0
-151 -78 -25 27 0
-152 -31 0
-152 33 0
-149 -79 -25 28 0
-150 -31 0
-150 34 0
-147 -80 -25 29 0
-148 -31 0
-148 35 0
-145 -81 -26 27 0
-146 -32 0
-146 33 0
-143 -82 -26 28 0
-144 -32 0
-144 34 0
-141 -83 -26 29 0
-142 -32 0
-142 35 0
-139 -84 -27 28 0
-140 -33 0
-140 34 0
-137 -85 -27 29 0
-138 -33 0
-138 35 0
-135 -86 -28 29 0
-136 -34 0
-136 35 0
-131 31 0
-131 -32 0
-132 32 0
-132 -33 0
-133 33 0
-133 -34 0
-134 34 0
-134 -35 0
